PROBLEM NAME: eil51_n17
KNAPSACK DATA TYPE: multiple strongly correlated
DIMENSION: 17
NUMBER OF ITEMS: 16
CAPACITY OF KNAPSACK: 4183
MIN SPEED: 0.1
MAX SPEED: 1
RENTING RATIO: 9.89
EDGE_WEIGHT_TYPE: CEIL_2D
NODE_COORD_SECTION	(INDEX, X, Y):
1	52	64
2	40	30
3	17	63
4	17	33
5	13	13
6	42	57
7	8	52
8	43	67
9	58	27
10	38	46
11	46	10
12	32	22
13	59	15
14	5	64
15	39	10
16	32	39
17	48	28
ITEMS SECTION	(INDEX, PROFIT, WEIGHT, ASSIGNED NODE NUMBER):
1	1128	928	8
2	1013	813	3
3	990	790	14
4	973	773	7
5	882	682	4
6	852	652	5
7	688	488	12
8	677	477	15
9	593	393	11
10	564	264	13
11	553	353	9
12	534	234	17
13	445	245	2
14	442	242	16
15	425	225	10
16	311	111	6
